BEGIN IONS
TITLE=20231201_EX1_UM8_Perez044_SA_EXT00_Mito_DSS_F20.10234.10234.4.0
CHARGE=4+
SEQUENCE=EVAENC[Carbamidomethyl]K[Formula:C6O5H2N-2S1#XL1]DIK//SK[#XL1]VTAVHK
2212.18 4
200.104 2328.2
200.141 1425.3
201.088 44074.8
201.125 119465
202.092 3074.4
202.128 10977.2
203.093 1380.8
211.109 23516.3
212.103 1466.3
213.089 1587.9
218.151 2453.3
219.152 1594.6
220.824 1159.1
222.151 2892.7
226.083 6132.5
229.12 21275.5
230.125 2482.6
237.136 6395.6
240.161 2055
242.151 5358.1
242.188 4575.1
244.094 4884
246.158 1516.2
254.152 11641.9
259.621 1234.1
260.198 52307.3
261.158 1462.4
261.202 5944.4
264.136 1685.4
266.163 22952.9
267.167 3059.2
269.163 2679.8
270.11 3310.2
270.183 2539.6
271.14 1702.2
272.162 2820.1
275.083 3319.4
278.168 6941.9
278.67 2646.6
282.147 22596.3
283.149 3923.1
284.128 1643
284.174 46546.6
284.193 3144.8
285.176 5380.6
290.162 1725.5
291.171 1624.1
297.121 3298.1
299.174 3142.9
300.156 4065.6
301.659 6454.1
302.162 2132.7
305.224 2604.4
308.174 4296.8
310.123 1506.9
315.133 8676.3
318.698 2362.4
320.175 1516.3
326.185 1682.2
327.702 16822.8
328.205 6928.7
329.189 1345.1
330.179 1762.1
333.19 2282.3
353.221 2476.5
355.165 1505.9
357.214 2654.1
364.226 1731.2
364.563 1632.5
371.232 1530
373.695 1426
375.226 29213
376.228 3005.5
381.228 2236.8
383.196 1621.3
383.241 9697.9
384.246 2504.5
392.173 6064.1
394.208 2194.7
398.516 1326.2
400.212 4280.6
400.547 4024.2
400.882 1778.9
404.226 1621.3
409.221 10196.9
410.225 2900.5
411.19 5535.5
412.188 2165.9
412.256 1853.2
416.178 1851.1
423.463 1797.3
427.234 4033.4
433.285 2350.3
436.267 2535.2
437.28 1940
442.752 3949.1
443.254 2648.6
452.195 1628.2
454.28 23176.1
455.284 6336.2
458.238 2716.9
474.761 1472.3
477.603 1339
479.76 2231.8
480.297 4341.9
487.767 1744.5
488.015 3599.7
488.765 2978.6
491.263 3190.1
492.271 4637.4
492.517 5469.6
492.764 3447.3
493.02 1874.2
493.207 1728.9
496.771 11912
497.022 20470.7
497.272 9036
497.525 2202.9
497.771 1560.4
499.307 1386.9
499.543 1717.2
499.774 11969.2
500.278 6941.4
503.975 4877.4
504.308 3858.5
505.256 3193.7
508.293 8610.9
508.78 2819.1
508.936 2434.2
509.293 2885.1
511.297 1894.9
517.306 23184.4
517.808 18358.5
518.264 2349.7
518.308 4273.3
522.287 1888.9
523.259 2421.8
523.306 11141.8
523.806 2993.3
525.233 3950.4
526.302 4418.8
526.349 5212.1
536.282 3048.9
537.246 1847.9
537.32 7040.6
538.321 2969.3
540.758 2751.5
544.305 2708
545.046 2018.7
545.265 5363.6
545.838 16325.8
546.29 2222.2
546.34 8890.7
546.843 3715.6
547.33 1665
547.662 3588.5
548.243 1670.4
548.306 1761.8
548.644 1636.6
549.275 1550.8
550.27 3338.7
551.644 1793.7
551.954 1716.3
553.323 16144.4
553.615 5128.1
553.762 1742.7
553.828 9913.4
554.255 6594.9
554.346 34816.1
554.777 6707.3
554.841 11719.1
555.329 87574.4
555.79 4103.6
556.286 1939.1
556.332 25630.6
557.321 14054.7
557.654 12941.6
557.986 5167
558.274 2760.3
558.322 2290
562.297 3029.1
563.954 1558.3
564.3 9065.7
564.796 3452.1
565.306 2351.4
565.802 6486.7
566.315 3227.3
568.971 1440.8
569.625 1768.8
569.784 1543.8
569.955 3814.2
573.791 1944
574.297 1819.7
575.629 2468.8
575.964 3010.5
576.307 2064.5
582.297 2823.1
582.802 2670.9
589.328 7675.7
589.662 11685.3
589.993 5333.3
590.325 3023.3
591.304 2959.8
591.803 3217.7
595.333 54173.3
595.667 53634.2
596.001 27263.2
596.336 7898.1
596.671 2656.7
598.319 1839.3
598.988 3254.8
599.813 25927.7
600.315 14039.9
600.813 7495
601.315 2153.9
601.981 1801.6
602.311 10289.9
602.856 2506.1
603.361 3150.1
603.664 2016.6
603.864 2239.2
606.312 1674.9
606.824 2305.1
612.807 2087.9
613.321 1773.5
615.335 2733.8
621.314 1733.6
625.863 6217.8
626.352 2642.4
626.671 5381.4
627.007 1617.1
630.32 2827.6
632.345 14771
632.677 23620.4
633.01 16173.3
633.344 11110.2
633.68 2012.8
634.337 3152
636.323 7399.5
636.378 7932.4
636.826 7704.9
637.325 1734.9
637.391 4447.2
638.347 27713.4
638.682 36501.6
639.016 17331.2
639.351 2023.9
641.389 3327.1
642.007 2422.9
642.338 2485.9
642.67 1613.7
644.009 1549.8
644.346 2669.2
646.327 2073.8
647.83 1751
649.33 2203.3
650.019 10073
650.357 8815.1
650.686 8727.1
651.017 3831.4
654.397 106437
655.399 37169.6
656.026 7617.6
656.347 11728.5
656.688 9409.6
656.842 2261.8
657.024 4296
657.34 6945.8
659.883 2591.7
660.38 1790.6
662.026 73418.3
662.361 83016.1
662.694 46702.5
663.03 13151.5
663.365 6268.2
665.684 3566.3
665.842 10692.9
666.345 8262.1
666.84 2879.2
672.34 2164.9
685.264 4980.3
686.362 1940.5
695.047 2687.7
695.269 1894.9
695.385 2645.3
697.873 1928.4
698.717 1964.4
705.379 1781.3
705.878 8784.2
706.379 7754.4
706.881 4935.1
707.312 2578.4
713.868 4061.9
714.37 3017.7
715.376 5424.8
715.875 6054.7
716.38 1924.9
739.344 2916.8
746.389 1826.8
747.383 2407.4
748.896 2670.5
750.379 1968.9
750.88 3470.6
753.883 2703.3
754.393 3460.4
755.383 1869.7
755.46 3684.7
762.9 10021.5
763.396 8006.6
763.898 6388.4
765.411 3189.6
771.394 2778.1
771.899 2095.9
779.896 3527.3
780.398 2549.3
801.422 5397.9
805.439 2939.4
805.938 2020.2
811.42 3064.7
818.418 5995.3
818.921 4385.5
819.43 4524.1
819.938 3851.1
820.436 2887
827.424 5412.9
827.926 3863
828.437 2860
828.956 2174.2
829.434 2562.3
833.398 2371
835.474 3899.9
835.975 2789.2
836.479 2722.1
838.339 1936.5
846.432 2531.3
856.521 1970
862.944 8860.9
863.442 9446.2
863.942 3264.9
864.444 2955.8
883.972 2284.4
884.493 4781.4
884.973 1942.1
892.496 9446.1
892.997 13628.1
893.494 5640.3
893.982 2561.3
911.483 2130.1
915.467 4384.9
916.471 4056.3
919.985 3248.6
920.483 2959.2
928.989 1936.1
943.395 3177.9
948.511 2123
957.509 2951.7
958.509 2354.9
967.991 6243.8
968.49 5282.1
968.99 3537.6
998.541 6080.3
1007.6 4192
1026.5 3892.1
1027.5 3653.7
1028.5 2146.5
1044.51 4724.3
1045.51 2462.1
1057.45 2202.7
1058.44 2037.9
1071.56 4990.7
1072.56 1816.4
1097.54 1668.1
1099.53 1577.8
1115.54 7954.1
1116.55 4334
1130.59 3861.8
1198.62 1962.8
1199.63 2028.1
1218.25 1918.7
1251.74 2285.7
1271.64 3216.2
1272.65 2044.9
1325.65 2913
1326.66 2034.7
1330.68 3106.7
1331.67 2053.7
END IONS