BEGIN IONS
TITLE=20240311_EX1_UM3_Perez044_SA_EXT00_MitoDSSO_WT3_F18.10043.10043.2.0
SEQUENCE=K[Formula:C6O5H2N-2S1#XL1]GK[#XL1]FLK
CHARGE=2+
878.472 2
202.05 1.16091e+06
203.053 125220
207.948 59294.2
209.091 121486
211.119 126944
224.114 58880.7
226.119 473398
227.102 109812
233.164 118395
244.129 208709
245.113 97107.3
250.119 155704
252.108 367429
260.196 227824
262.139 917949
263.143 153018
265.108 301083
266.111 88532.9
267.122 65390
276.101 198422
278.113 181147
279.097 72900.4
293.102 441981
295.118 267770
296.148 484494
296.648 85533
311.113 1.81167e+06
312.116 258102
338.123 81486.6
338.656 337847
339.108 1.37933e+06
340.111 228673
340.136 92096
341.115 70401.5
346.653 97632.1
352.689 81316.3
356.135 281606
357.644 177961
393.139 90809.7
395.71 68464.2
397.16 99908.8
400.23 84130.5
404.221 73111.1
407.265 396427
408.268 107841
413.156 65250.2
416.175 155425
416.67 91690.1
421.166 149284
421.661 110033
422.164 174209
425.156 168631
425.205 439647
426.201 94672.8
430.171 1.29507e+06
430.659 869088
431.169 320975
431.187 264357
431.228 135281
431.681 182382
435.14 194014
439.177 1.28265e+07
439.68 5.02722e+06
439.739 1.82224e+07
440.181 1.35618e+06
440.241 8.46633e+06
440.742 255064
453.151 1.30979e+06
454.155 175931
472.214 2.32282e+06
473.218 356952
484.288 146217
512.184 68077.9
522.219 270120
523.219 72197.4
530.198 194330
539.245 1.35029e+06
540.247 242144
541.167 70871.7
548.7 68101.1
565.229 80803.3
569.784 99909.9
570.217 81840.6
570.271 169138
570.771 122208
588.219 200902
591.288 156371
597.975 63168.4
599.185 78568.7
616.214 369413
617.211 118485
619.282 3.18988e+06
620.285 991880
658.293 91317.9
659.279 218912
676.303 1.02343e+06
677.307 331826
684.341 86303.3
687.271 116493
696.206 75754.6
704.37 1.08837e+06
705.374 392347
713.23 195830
714.219 261267
715.22 82416.6
731.239 1.02319e+06
732.243 483977
732.365 2.35307e+06
733.239 131855
733.37 791050
749.254 413880
749.393 155605
750.26 101576
750.38 115159
1005.9 71084.9
1233.59 73247.3
1415.61 76185.3
1944.61 78387
END IONS